(declare-fun v9 () (_ BitVec 10))
(declare-fun v10 ()Bool          )
(declare-fun v15 () (_ BitVec 6))
(declare-fun a57 () (Array (_ BitVec 10) (_ BitVec 14)))
(assert
(let (($e2 (_ bv25511 15)))
(let (($e5 (_ bv0 4)))
(let (($e6 (_ bv15 4)))
(let (($e80        a57          ))
(let (($e116        v10               ))
(let (($e117                  $e116 ))
(let (($e118             $e117 ))
(let (($e148        $e80             ))
(let (($e309 ((_ extract 14 5) $e2)))
(let (($e310 (select $e148 $e309)))
(let (($e370 (concat $e5 v15)))
(let (($e371 (bvand $e370 v9)))
(let (($e373                    $e6     ))
(let (($e374 (concat $e373 $e371)))
(let (($e747               $e118       ))
(let (($e753                  $e747 ))
(let (($e943 (bvand $e374 $e310)))
(let (($e944             $e753          ))
(let (($e945            $e944 ))
             (ite        $e945  $e943 $e374)
                                                                                                                                                                                                                                                                                                                                                                                                                                                                                                                                                                                                                                                                                                                                                                                                                                                                                                                                                                                                                                                                                                                                                                                                                                                                                                                                                                                                                                                                                                                                                                                                                                                                                                                                                                                                                                                                                                                                                                                                                                                                                                                                                                                                                                                                                                                                                                                                                                                                                                                                                                                                                                                                                                                                                                                                                                                                                                                                                                                                                                                                                                                                                                                                                                                                                                                                                                                                                                                                                                                                                                                                                                                                                                                                                                                                                                                                                                                                                                                                                                                                                                                                                                                                                                                                                                )))                                                                                                                                                                                             )     )                                                                                                                                                                                                                                                                                                                                                                                    )) ))                                                           ))                                                                                                                                                                )                             )))                                   )                                                  ))  ) )
